
List of user-set options:

                                    Name   Value                used
                             alpha_for_y = full                  yes
                         constr_viol_tol = 1e-05                 yes
                        file_print_level = 5                     yes
                   hessian_approximation = limited-memory        yes
              limited_memory_max_history = 10                    yes
                           linear_solver = mumps                 yes
                                max_iter = 10                    yes
                             mu_strategy = adaptive              yes
                      nlp_scaling_method = none                  yes
                             output_file = opt_IPOPT.txt         yes
                             print_level = 5                     yes
                      print_user_options = yes                   yes
                                recalc_y = yes                   yes
                                      sb = yes                   yes
                                     tol = 1e-05                 yes
This is Ipopt version 3.13.5, running with linear solver mumps.
NOTE: Other linear solvers might be more efficient (see Ipopt documentation).

Number of nonzeros in equality constraint Jacobian...:    19840
Number of nonzeros in inequality constraint Jacobian.:        0
Number of nonzeros in Lagrangian Hessian.............:        0

Total number of variables............................:      163
                     variables with only lower bounds:        0
                variables with lower and upper bounds:      163
                     variables with only upper bounds:        0
Total number of equality constraints.................:      160
Total number of inequality constraints...............:        0
        inequality constraints with only lower bounds:        0
   inequality constraints with lower and upper bounds:        0
        inequality constraints with only upper bounds:        0

iter    objective    inf_pr   inf_du lg(mu)  ||d||  lg(rg) alpha_du alpha_pr  ls
   0 -2.7865105e+00 6.35e-10 1.83e+00   0.0 0.00e+00    -  0.00e+00 0.00e+00   0
Warning: Cutting back alpha due to evaluation error
Warning: Cutting back alpha due to evaluation error
Warning: Cutting back alpha due to evaluation error
   1 -2.8544260e+00 5.56e-10 1.08e+00  -1.1 7.78e-02    -  9.94e-01 1.25e-01f  4
Warning: Cutting back alpha due to evaluation error
   2 -2.9052878e+00 2.80e-10 8.34e-01  -2.2 1.44e-02    -  1.00e+00 5.00e-01f  2
Warning: Cutting back alpha due to evaluation error
Warning: Cutting back alpha due to evaluation error
Warning: Cutting back alpha due to evaluation error
   3 -2.9434554e+00 2.64e-10 4.92e-01  -2.5 1.08e-01    -  1.00e+00 5.45e-02f  4
Warning: Cutting back alpha due to evaluation error
Warning: Cutting back alpha due to evaluation error
Warning: Cutting back alpha due to evaluation error
Warning: Cutting back alpha due to evaluation error
Warning: Cutting back alpha due to evaluation error
   4 -2.9576901e+00 2.57e-10 4.53e-01  -2.8 7.35e-02    -  1.00e+00 2.42e-02f  6
Warning: Cutting back alpha due to evaluation error
Warning: Cutting back alpha due to evaluation error
Warning: Cutting back alpha due to evaluation error
Warning: Cutting back alpha due to evaluation error
Warning: Cutting back alpha due to evaluation error
Warning: Cutting back alpha due to evaluation error
Warning: Cutting back alpha due to evaluation error
   5 -2.9619063e+00 2.56e-10 5.71e-01  -3.0 1.24e-01    -  1.00e+00 5.02e-03f  8
Warning: Cutting back alpha due to evaluation error
Warning: Cutting back alpha due to evaluation error
Warning: Cutting back alpha due to evaluation error
Warning: Cutting back alpha due to evaluation error
Warning: Cutting back alpha due to evaluation error
Warning: Cutting back alpha due to evaluation error
   6 -2.9685717e+00 2.52e-10 5.99e-01  -3.2 5.58e-02    -  1.00e+00 1.53e-02f  7
Warning: Cutting back alpha due to evaluation error
Warning: Cutting back alpha due to evaluation error
Warning: Cutting back alpha due to evaluation error
Warning: Cutting back alpha due to evaluation error
Warning: Cutting back alpha due to evaluation error
Warning: Cutting back alpha due to evaluation error
Warning: Cutting back alpha due to evaluation error
Warning: Cutting back alpha due to evaluation error
Warning: Cutting back alpha due to evaluation error
Warning: Cutting back alpha due to evaluation error
Warning: Cutting back alpha due to evaluation error
Warning: Cutting back alpha due to evaluation error
Warning: Cutting back alpha due to evaluation error
Warning: Cutting back alpha due to evaluation error
Warning: Cutting back alpha due to evaluation error
Warning: Cutting back alpha due to evaluation error
Warning: Cutting back alpha due to evaluation error
Warning: Cutting back alpha due to evaluation error
   7 -2.9687982e+00 2.52e-10 2.10e+00  -3.2 2.05e-01    -  1.00e+00 1.67e-06f 19
Warning: Cutting back alpha due to evaluation error
Warning: Cutting back alpha due to evaluation error
Warning: Cutting back alpha due to evaluation error
Warning: Cutting back alpha due to evaluation error
Warning: Cutting back alpha due to evaluation error
Warning: Cutting back alpha due to evaluation error
Warning: Cutting back alpha due to evaluation error
Warning: Cutting back alpha due to evaluation error
Warning: Cutting back alpha due to evaluation error
Warning: Cutting back alpha due to evaluation error
Warning: Cutting back alpha due to evaluation error
Warning: Cutting back alpha due to evaluation error
Warning: Cutting back alpha due to evaluation error
Warning: Cutting back alpha due to evaluation error
Warning: Cutting back alpha due to evaluation error
Warning: Cutting back alpha due to evaluation error
Warning: Cutting back alpha due to evaluation error
Warning: Cutting back alpha due to evaluation error
Warning: Cutting back alpha due to evaluation error
   8 -2.9685816e+00 2.52e-10 1.99e+00  -3.4 1.48e-01    -  1.00e+00 1.76e-11h 36
Warning: Cutting back alpha due to evaluation error
Warning: Cutting back alpha due to evaluation error
Warning: Cutting back alpha due to evaluation error
Warning: Cutting back alpha due to evaluation error
Warning: Cutting back alpha due to evaluation error
Warning: Cutting back alpha due to evaluation error
Warning: Cutting back alpha due to evaluation error
Warning: Cutting back alpha due to evaluation error
Warning: Cutting back alpha due to evaluation error
Warning: Cutting back alpha due to evaluation error
Warning: Cutting back alpha due to evaluation error
Warning: Cutting back alpha due to evaluation error
Warning: Cutting back alpha due to evaluation error
Warning: Cutting back alpha due to evaluation error
Warning: Cutting back alpha due to evaluation error
Warning: Cutting back alpha due to evaluation error
Warning: Cutting back alpha due to evaluation error
Warning: Cutting back alpha due to evaluation error
Warning: Cutting back alpha due to evaluation error
   9 -2.9687746e+00 2.52e-10 1.53e+00  -2.8 4.33e-02    -  1.00e+00 1.91e-06f 20
Warning: Cutting back alpha due to evaluation error
Warning: Cutting back alpha due to evaluation error
Warning: Cutting back alpha due to evaluation error
Warning: Cutting back alpha due to evaluation error
Warning: Cutting back alpha due to evaluation error
Warning: Cutting back alpha due to evaluation error
Warning: Cutting back alpha due to evaluation error
Warning: Cutting back alpha due to evaluation error
Warning: Cutting back alpha due to evaluation error
Warning: Cutting back alpha due to evaluation error
Warning: Cutting back alpha due to evaluation error
Warning: Cutting back alpha due to evaluation error
Warning: Cutting back alpha due to evaluation error
Warning: Cutting back alpha due to evaluation error
Warning: Cutting back alpha due to evaluation error
Warning: Cutting back alpha due to evaluation error
Warning: Cutting back alpha due to evaluation error
Warning: Cutting back alpha due to evaluation error
Warning: Cutting back alpha due to evaluation error
Warning: Cutting back alpha due to evaluation error
iter    objective    inf_pr   inf_du lg(mu)  ||d||  lg(rg) alpha_du alpha_pr  ls
  10 -2.9687732e+00 2.52e-10 1.67e+00  -2.8 4.86e-02    -  1.00e+00 4.66e-10h 32

Number of Iterations....: 10

                                   (scaled)                 (unscaled)
Objective...............:  -2.9687732336938382e+00   -2.9687732336938382e+00
Dual infeasibility......:   1.6726332470245775e+00    1.6726332470245775e+00
Constraint violation....:   2.5213431342763215e-10    2.5213431342763215e-10
Complementarity.........:   2.3729879518479897e-02    2.3729879518479897e-02
Overall NLP error.......:   1.6726332470245775e+00    1.6726332470245775e+00


Number of objective function evaluations             = 38
Number of objective gradient evaluations             = 11
Number of equality constraint evaluations            = 139
Number of inequality constraint evaluations          = 0
Number of equality constraint Jacobian evaluations   = 11
Number of inequality constraint Jacobian evaluations = 0
Number of Lagrangian Hessian evaluations             = 0
Total CPU secs in IPOPT (w/o function evaluations)   =      0.162
Total CPU secs in NLP function evaluations           =   1612.472

EXIT: Maximum Number of Iterations Exceeded.
